1000 1000 1675395
310 673 426 325 555 292 343 362 305 459
426 468 463 498 540 455 341 491 688 607
132060 314964 197238 161850 299700 132860 116963 177742 209840 278613
119791 328663 206048 194862 362008 148719 140884 192837 260781 287434
